p tw 155 32551 2 
1 3 
1 4 
1 5 
1 6 
1 7 
1 8 
1 9 
1 10 
1 11 
1 12 
1 13 
1 14 
1 15 
1 16 
1 17 
1 18 
1 19 
1 20 
1 21 
1 22 
1 23 
1 24 
1 25 
1 26 
1 27 
1 28 
1 29 
1 39 
1 50 
1 61 
1 73 
1 78 
1 92 
1 105 
1 110 
1 118 
1 125 
1 126 
1 127 
1 128 
1 129 
2 3 
2 4 
2 5 
2 6 
2 7 
2 8 
2 9 
2 10 
2 11 
2 12 
2 13 
2 14 
2 15 
2 16 
2 29 
2 30 
2 31 
2 32 
2 33 
2 34 
2 35 
2 36 
2 37 
2 38 
2 39 
2 40 
2 41 
2 42 
2 52 
2 62 
2 76 
2 87 
2 93 
2 101 
2 107 
2 114 
2 121 
2 124 
2 125 
2 150 
2 153 
3 4 
3 5 
3 6 
3 7 
3 8 
3 9 
3 10 
3 11 
3 12 
3 13 
3 14 
3 15 
3 16 
3 17 
3 30 
3 43 
3 44 
3 45 
3 46 
3 47 
3 48 
3 49 
3 50 
3 51 
3 52 
3 53 
3 54 
3 55 
3 66 
3 77 
3 78 
3 79 
3 80 
3 81 
3 82 
3 83 
3 84 
3 85 
3 86 
3 87 
4 5 
4 6 
4 7 
4 8 
4 9 
4 10 
4 11 
4 12 
4 13 
4 14 
4 15 
4 18 
4 23 
4 31 
4 33 
4 43 
4 47 
4 55 
4 56 
4 57 
4 58 
4 59 
4 60 
4 61 
4 62 
4 63 
4 64 
4 65 
4 66 
4 98 
4 106 
4 122 
4 125 
4 130 
4 131 
4 132 
4 133 
4 134 
4 135 
5 6 
5 7 
5 8 
5 9 
5 10 
5 11 
5 12 
5 13 
5 14 
5 15 
5 19 
5 24 
5 32 
5 34 
5 43 
5 44 
5 63 
5 66 
5 67 
5 68 
5 69 
5 70 
5 71 
5 72 
5 73 
5 74 
5 75 
5 76 
5 85 
5 108 
5 113 
5 118 
5 133 
5 138 
5 141 
5 146 
5 150 
5 151 
6 7 
6 8 
6 9 
6 10 
6 11 
6 12 
6 13 
6 14 
6 15 
6 20 
6 27 
6 33 
6 37 
6 44 
6 53 
6 56 
6 61 
6 67 
6 75 
6 77 
6 84 
6 88 
6 89 
6 90 
6 91 
6 92 
6 93 
6 94 
6 95 
6 97 
6 107 
6 112 
6 132 
6 136 
6 146 
6 148 
6 149 
7 8 
7 9 
7 10 
7 11 
7 12 
7 13 
7 14 
7 15 
7 21 
7 28 
7 34 
7 38 
7 45 
7 54 
7 57 
7 64 
7 68 
7 70 
7 78 
7 86 
7 88 
7 92 
7 96 
7 97 
7 98 
7 99 
7 100 
7 101 
7 102 
7 106 
7 119 
7 139 
7 144 
7 148 
7 150 
7 152 
8 9 
8 10 
8 11 
8 12 
8 13 
8 14 
8 15 
8 22 
8 27 
8 35 
8 41 
8 45 
8 46 
8 58 
8 65 
8 69 
8 71 
8 79 
8 87 
8 88 
8 95 
8 103 
8 104 
8 105 
8 106 
8 107 
8 108 
8 109 
8 111 
8 123 
8 129 
8 135 
8 138 
8 147 
8 152 
9 10 
9 11 
9 12 
9 13 
9 14 
9 15 
9 18 
9 20 
9 36 
9 40 
9 47 
9 51 
9 58 
9 70 
9 72 
9 79 
9 83 
9 89 
9 96 
9 101 
9 110 
9 111 
9 112 
9 113 
9 114 
9 115 
9 116 
9 120 
9 128 
9 131 
9 140 
9 144 
9 146 
9 147 
10 11 
10 12 
10 13 
10 14 
10 15 
10 23 
10 25 
10 37 
10 42 
10 48 
10 54 
10 55 
10 59 
10 71 
10 76 
10 80 
10 90 
10 91 
10 96 
10 100 
10 103 
10 105 
10 116 
10 117 
10 118 
10 119 
10 120 
10 121 
10 133 
10 143 
10 147 
10 149 
10 154 
11 12 
11 13 
11 14 
11 15 
11 24 
11 26 
11 31 
11 38 
11 49 
11 52 
11 60 
11 69 
11 72 
11 77 
11 81 
11 91 
11 97 
11 98 
11 104 
11 110 
11 111 
11 117 
11 119 
11 122 
11 123 
11 124 
11 127 
11 136 
11 140 
11 141 
11 142 
11 143 
12 13 
12 14 
12 15 
12 21 
12 25 
12 35 
12 42 
12 48 
12 51 
12 62 
12 65 
12 67 
12 74 
12 80 
12 86 
12 89 
12 99 
12 109 
12 112 
12 122 
12 124 
12 126 
12 128 
12 130 
12 136 
12 137 
12 138 
12 139 
12 142 
12 151 
12 155 
13 14 
13 15 
13 17 
13 26 
13 36 
13 40 
13 50 
13 63 
13 64 
13 74 
13 75 
13 81 
13 82 
13 93 
13 95 
13 100 
13 102 
13 103 
13 108 
13 115 
13 121 
13 123 
13 127 
13 130 
13 134 
13 137 
13 144 
13 145 
13 149 
13 155 
14 15 
14 19 
14 29 
14 39 
14 41 
14 46 
14 53 
14 56 
14 57 
14 73 
14 82 
14 85 
14 94 
14 99 
14 104 
14 113 
14 116 
14 117 
14 120 
14 134 
14 135 
14 139 
14 140 
14 142 
14 145 
14 148 
14 153 
14 154 
14 155 
15 22 
15 28 
15 30 
15 32 
15 49 
15 59 
15 60 
15 68 
15 83 
15 84 
15 90 
15 94 
15 102 
15 109 
15 114 
15 115 
15 126 
15 129 
15 131 
15 132 
15 137 
15 141 
15 143 
15 145 
15 151 
15 152 
15 153 
15 154 
16 17 
16 18 
16 19 
16 20 
16 21 
16 22 
16 23 
16 24 
16 25 
16 26 
16 27 
16 28 
16 29 
16 30 
16 31 
16 32 
16 33 
16 34 
16 35 
16 36 
16 37 
16 38 
16 39 
16 40 
16 41 
16 42 
16 55 
16 66 
16 77 
16 78 
16 79 
16 80 
16 81 
16 82 
16 83 
16 84 
16 85 
16 86 
16 87 
17 18 
17 19 
17 20 
17 21 
17 22 
17 23 
17 24 
17 25 
17 26 
17 27 
17 28 
17 29 
17 30 
17 36 
17 43 
17 44 
17 45 
17 46 
17 47 
17 48 
17 49 
17 50 
17 51 
17 52 
17 53 
17 54 
17 63 
17 75 
17 82 
17 93 
17 100 
17 103 
17 123 
17 127 
17 130 
17 137 
17 144 
17 145 
18 19 
18 20 
18 21 
18 22 
18 23 
18 24 
18 25 
18 26 
18 27 
18 28 
18 29 
18 31 
18 36 
18 43 
18 47 
18 55 
18 56 
18 57 
18 58 
18 59 
18 60 
18 61 
18 62 
18 63 
18 64 
18 65 
18 70 
18 79 
18 89 
18 96 
18 110 
18 111 
18 112 
18 113 
18 114 
18 115 
18 116 
19 20 
19 21 
19 22 
19 23 
19 24 
19 25 
19 26 
19 27 
19 28 
19 29 
19 32 
19 39 
19 43 
19 46 
19 56 
19 66 
19 67 
19 68 
19 69 
19 70 
19 71 
19 72 
19 73 
19 74 
19 75 
19 76 
19 85 
19 99 
19 116 
19 117 
19 135 
19 140 
19 145 
19 148 
19 153 
19 155 
20 21 
20 22 
20 23 
20 24 
20 25 
20 26 
20 27 
20 28 
20 29 
20 33 
20 40 
20 44 
20 51 
20 56 
20 58 
20 67 
20 72 
20 77 
20 83 
20 88 
20 89 
20 90 
20 91 
20 92 
20 93 
20 94 
20 95 
20 101 
20 120 
20 128 
20 131 
20 140 
20 144 
20 146 
20 147 
21 22 
21 23 
21 24 
21 25 
21 26 
21 27 
21 28 
21 29 
21 34 
21 42 
21 45 
21 48 
21 57 
21 65 
21 67 
21 68 
21 78 
21 86 
21 88 
21 96 
21 97 
21 98 
21 99 
21 100 
21 101 
21 102 
21 109 
21 112 
21 124 
21 128 
21 130 
21 142 
21 151 
21 155 
22 23 
22 24 
22 25 
22 26 
22 27 
22 28 
22 29 
22 32 
22 35 
22 46 
22 49 
22 58 
22 59 
22 69 
22 79 
22 83 
22 88 
22 94 
22 102 
22 103 
22 104 
22 105 
22 106 
22 107 
22 108 
22 109 
22 114 
22 126 
22 132 
22 143 
22 145 
22 151 
22 152 
23 24 
23 25 
23 26 
23 27 
23 28 
23 29 
23 33 
23 37 
23 47 
23 48 
23 59 
23 66 
23 71 
23 80 
23 90 
23 96 
23 98 
23 103 
23 106 
23 117 
23 118 
23 119 
23 120 
23 121 
23 122 
23 125 
23 130 
23 131 
23 132 
23 133 
23 134 
23 135 
24 25 
24 26 
24 27 
24 28 
24 29 
24 34 
24 38 
24 44 
24 49 
24 60 
24 63 
24 72 
24 81 
24 85 
24 91 
24 97 
24 104 
24 108 
24 110 
24 113 
24 117 
24 118 
24 122 
24 123 
24 124 
24 133 
24 138 
24 141 
24 146 
24 150 
24 151 
25 26 
25 27 
25 28 
25 29 
25 35 
25 42 
25 51 
25 54 
25 55 
25 62 
25 74 
25 76 
25 80 
25 89 
25 91 
25 99 
25 100 
25 105 
25 116 
25 122 
25 126 
25 133 
25 136 
25 137 
25 138 
25 139 
25 143 
25 147 
25 149 
25 154 
26 27 
26 28 
26 29 
26 31 
26 40 
26 50 
26 52 
26 64 
26 69 
26 74 
26 77 
26 81 
26 95 
26 98 
26 102 
26 108 
26 111 
26 115 
26 119 
26 121 
26 127 
26 134 
26 136 
26 140 
26 141 
26 142 
26 143 
26 149 
26 155 
27 28 
27 29 
27 37 
27 41 
27 45 
27 53 
27 61 
27 65 
27 71 
27 75 
27 84 
27 87 
27 95 
27 97 
27 107 
27 111 
27 112 
27 123 
27 129 
27 132 
27 135 
27 136 
27 138 
27 146 
27 147 
27 148 
27 149 
27 152 
28 29 
28 30 
28 38 
28 54 
28 60 
28 64 
28 68 
28 70 
28 84 
28 86 
28 90 
28 92 
28 106 
28 109 
28 115 
28 119 
28 129 
28 131 
28 137 
28 139 
28 141 
28 144 
28 148 
28 150 
28 152 
28 153 
28 154 
29 41 
29 52 
29 53 
29 57 
29 62 
29 73 
29 76 
29 82 
29 87 
29 93 
29 94 
29 101 
29 104 
29 107 
29 113 
29 114 
29 120 
29 121 
29 124 
29 125 
29 134 
29 139 
29 142 
29 150 
29 153 
29 154 
30 31 
30 32 
30 33 
30 34 
30 35 
30 36 
30 37 
30 38 
30 39 
30 40 
30 41 
30 42 
30 43 
30 44 
30 45 
30 46 
30 47 
30 48 
30 49 
30 50 
30 51 
30 52 
30 53 
30 54 
30 60 
30 68 
30 84 
30 90 
30 109 
30 115 
30 129 
30 131 
30 137 
30 141 
30 153 
30 154 
31 32 
31 33 
31 34 
31 35 
31 36 
31 37 
31 38 
31 39 
31 40 
31 41 
31 42 
31 43 
31 52 
31 55 
31 56 
31 57 
31 58 
31 59 
31 60 
31 61 
31 62 
31 63 
31 64 
31 65 
31 69 
31 77 
31 98 
31 111 
31 119 
31 127 
31 136 
31 140 
31 141 
31 142 
31 143 
32 33 
32 34 
32 35 
32 36 
32 37 
32 38 
32 39 
32 40 
32 41 
32 42 
32 43 
32 49 
32 59 
32 66 
32 67 
32 68 
32 69 
32 70 
32 71 
32 72 
32 73 
32 74 
32 75 
32 76 
32 83 
32 94 
32 102 
32 114 
32 126 
32 132 
32 143 
32 145 
32 151 
32 152 
33 34 
33 35 
33 36 
33 37 
33 38 
33 39 
33 40 
33 41 
33 42 
33 44 
33 47 
33 56 
33 66 
33 67 
33 77 
33 88 
33 89 
33 90 
33 91 
33 92 
33 93 
33 94 
33 95 
33 98 
33 106 
33 122 
33 125 
33 130 
33 131 
33 132 
33 133 
33 134 
33 135 
34 35 
34 36 
34 37 
34 38 
34 39 
34 40 
34 41 
34 42 
34 44 
34 45 
34 57 
34 63 
34 68 
34 78 
34 85 
34 88 
34 96 
34 97 
34 98 
34 99 
34 100 
34 101 
34 102 
34 108 
34 113 
34 118 
34 133 
34 138 
34 141 
34 146 
34 150 
34 151 
35 36 
35 37 
35 38 
35 39 
35 40 
35 41 
35 42 
35 46 
35 51 
35 58 
35 62 
35 69 
35 74 
35 79 
35 80 
35 88 
35 89 
35 99 
35 103 
35 104 
35 105 
35 106 
35 107 
35 108 
35 109 
35 122 
35 126 
35 136 
35 137 
35 138 
35 139 
36 37 
36 38 
36 39 
36 40 
36 41 
36 42 
36 47 
36 63 
36 70 
36 75 
36 79 
36 82 
36 89 
36 93 
36 96 
36 100 
36 103 
36 110 
36 111 
36 112 
36 113 
36 114 
36 115 
36 116 
36 123 
36 127 
36 130 
36 137 
36 144 
36 145 
37 38 
37 39 
37 40 
37 41 
37 42 
37 48 
37 53 
37 59 
37 61 
37 71 
37 75 
37 80 
37 84 
37 90 
37 96 
37 97 
37 103 
37 107 
37 112 
37 117 
37 118 
37 119 
37 120 
37 121 
37 132 
37 136 
37 146 
37 148 
37 149 
38 39 
38 40 
38 41 
38 42 
38 49 
38 54 
38 60 
38 64 
38 70 
38 72 
38 81 
38 86 
38 91 
38 92 
38 97 
38 104 
38 106 
38 110 
38 117 
38 119 
38 122 
38 123 
38 124 
38 139 
38 144 
38 148 
38 150 
38 152 
39 40 
39 41 
39 42 
39 46 
39 50 
39 56 
39 61 
39 73 
39 78 
39 85 
39 92 
39 99 
39 105 
39 110 
39 116 
39 117 
39 118 
39 125 
39 126 
39 127 
39 128 
39 129 
39 135 
39 140 
39 145 
39 148 
39 153 
39 155 
40 41 
40 42 
40 50 
40 51 
40 58 
40 64 
40 72 
40 74 
40 81 
40 83 
40 95 
40 101 
40 102 
40 108 
40 115 
40 120 
40 121 
40 128 
40 131 
40 134 
40 140 
40 144 
40 146 
40 147 
40 149 
40 155 
41 42 
41 45 
41 53 
41 57 
41 65 
41 71 
41 73 
41 82 
41 87 
41 94 
41 95 
41 104 
41 111 
41 113 
41 120 
41 123 
41 129 
41 134 
41 135 
41 138 
41 139 
41 142 
41 147 
41 152 
41 154 
42 48 
42 54 
42 55 
42 65 
42 67 
42 76 
42 86 
42 91 
42 100 
42 105 
42 109 
42 112 
42 116 
42 124 
42 128 
42 130 
42 133 
42 142 
42 143 
42 147 
42 149 
42 151 
42 154 
42 155 
43 44 
43 45 
43 46 
43 47 
43 48 
43 49 
43 50 
43 51 
43 52 
43 53 
43 54 
43 55 
43 56 
43 57 
43 58 
43 59 
43 60 
43 61 
43 62 
43 63 
43 64 
43 65 
43 66 
43 67 
43 68 
43 69 
43 70 
43 71 
43 72 
43 73 
43 74 
43 75 
43 76 
44 45 
44 46 
44 47 
44 48 
44 49 
44 50 
44 51 
44 52 
44 53 
44 54 
44 56 
44 63 
44 67 
44 77 
44 85 
44 88 
44 89 
44 90 
44 91 
44 92 
44 93 
44 94 
44 95 
44 108 
44 113 
44 118 
44 133 
44 138 
44 141 
44 146 
44 150 
44 151 
45 46 
45 47 
45 48 
45 49 
45 50 
45 51 
45 52 
45 53 
45 54 
45 57 
45 65 
45 68 
45 71 
45 78 
45 87 
45 88 
45 95 
45 96 
45 97 
45 98 
45 99 
45 100 
45 101 
45 102 
45 111 
45 123 
45 129 
45 135 
45 138 
45 147 
45 152 
46 47 
46 48 
46 49 
46 50 
46 51 
46 52 
46 53 
46 54 
46 56 
46 58 
46 69 
46 79 
46 85 
46 88 
46 99 
46 103 
46 104 
46 105 
46 106 
46 107 
46 108 
46 109 
46 116 
46 117 
46 135 
46 140 
46 145 
46 148 
46 153 
46 155 
47 48 
47 49 
47 50 
47 51 
47 52 
47 53 
47 54 
47 66 
47 70 
47 79 
47 89 
47 96 
47 98 
47 106 
47 110 
47 111 
47 112 
47 113 
47 114 
47 115 
47 116 
47 122 
47 125 
47 130 
47 131 
47 132 
47 133 
47 134 
47 135 
48 49 
48 50 
48 51 
48 52 
48 53 
48 54 
48 59 
48 65 
48 67 
48 71 
48 80 
48 86 
48 90 
48 96 
48 103 
48 109 
48 112 
48 117 
48 118 
48 119 
48 120 
48 121 
48 124 
48 128 
48 130 
48 142 
48 151 
48 155 
49 50 
49 51 
49 52 
49 53 
49 54 
49 59 
49 60 
49 72 
49 81 
49 83 
49 91 
49 94 
49 97 
49 102 
49 104 
49 110 
49 114 
49 117 
49 122 
49 123 
49 124 
49 126 
49 132 
49 143 
49 145 
49 151 
49 152 
50 51 
50 52 
50 53 
50 54 
50 61 
50 64 
50 73 
50 74 
50 78 
50 81 
50 92 
50 95 
50 102 
50 105 
50 108 
50 110 
50 115 
50 118 
50 121 
50 125 
50 126 
50 127 
50 128 
50 129 
50 134 
50 149 
50 155 
51 52 
51 53 
51 54 
51 58 
51 62 
51 72 
51 74 
51 80 
51 83 
51 89 
51 99 
51 101 
51 120 
51 122 
51 126 
51 128 
51 131 
51 136 
51 137 
51 138 
51 139 
51 140 
51 144 
51 146 
51 147 
52 53 
52 54 
52 62 
52 69 
52 76 
52 77 
52 87 
52 93 
52 98 
52 101 
52 107 
52 111 
52 114 
52 119 
52 121 
52 124 
52 125 
52 127 
52 136 
52 140 
52 141 
52 142 
52 143 
52 150 
52 153 
53 54 
53 57 
53 61 
53 73 
53 75 
53 82 
53 84 
53 94 
53 97 
53 104 
53 107 
53 112 
53 113 
53 120 
53 132 
53 134 
53 136 
53 139 
53 142 
53 146 
53 148 
53 149 
53 154 
54 55 
54 64 
54 70 
54 76 
54 86 
54 91 
54 92 
54 100 
54 105 
54 106 
54 116 
54 119 
54 133 
54 139 
54 143 
54 144 
54 147 
54 148 
54 149 
54 150 
54 152 
54 154 
55 56 
55 57 
55 58 
55 59 
55 60 
55 61 
55 62 
55 63 
55 64 
55 65 
55 66 
55 76 
55 77 
55 78 
55 79 
55 80 
55 81 
55 82 
55 83 
55 84 
55 85 
55 86 
55 87 
55 91 
55 100 
55 105 
55 116 
55 133 
55 143 
55 147 
55 149 
55 154 
56 57 
56 58 
56 59 
56 60 
56 61 
56 62 
56 63 
56 64 
56 65 
56 67 
56 77 
56 85 
56 88 
56 89 
56 90 
56 91 
56 92 
56 93 
56 94 
56 95 
56 99 
56 116 
56 117 
56 135 
56 140 
56 145 
56 148 
56 153 
56 155 
57 58 
57 59 
57 60 
57 61 
57 62 
57 63 
57 64 
57 65 
57 68 
57 73 
57 78 
57 82 
57 88 
57 94 
57 96 
57 97 
57 98 
57 99 
57 100 
57 101 
57 102 
57 104 
57 113 
57 120 
57 134 
57 139 
57 142 
57 154 
58 59 
58 60 
58 61 
58 62 
58 63 
58 64 
58 65 
58 69 
58 72 
58 79 
58 83 
58 88 
58 101 
58 103 
58 104 
58 105 
58 106 
58 107 
58 108 
58 109 
58 120 
58 128 
58 131 
58 140 
58 144 
58 146 
58 147 
59 60 
59 61 
59 62 
59 63 
59 64 
59 65 
59 71 
59 80 
59 83 
59 90 
59 94 
59 96 
59 102 
59 103 
59 114 
59 117 
59 118 
59 119 
59 120 
59 121 
59 126 
59 132 
59 143 
59 145 
59 151 
59 152 
60 61 
60 62 
60 63 
60 64 
60 65 
60 68 
60 72 
60 81 
60 84 
60 90 
60 91 
60 97 
60 104 
60 109 
60 110 
60 115 
60 117 
60 122 
60 123 
60 124 
60 129 
60 131 
60 137 
60 141 
60 153 
60 154 
61 62 
61 63 
61 64 
61 65 
61 73 
61 75 
61 78 
61 84 
61 92 
61 97 
61 105 
61 107 
61 110 
61 112 
61 118 
61 125 
61 126 
61 127 
61 128 
61 129 
61 132 
61 136 
61 146 
61 148 
61 149 
62 63 
62 64 
62 65 
62 74 
62 76 
62 80 
62 87 
62 89 
62 93 
62 99 
62 101 
62 107 
62 114 
62 121 
62 122 
62 124 
62 125 
62 126 
62 136 
62 137 
62 138 
62 139 
62 150 
62 153 
63 64 
63 65 
63 75 
63 82 
63 85 
63 93 
63 100 
63 103 
63 108 
63 113 
63 118 
63 123 
63 127 
63 130 
63 133 
63 137 
63 138 
63 141 
63 144 
63 145 
63 146 
63 150 
63 151 
64 65 
64 70 
64 74 
64 81 
64 86 
64 92 
64 95 
64 102 
64 106 
64 108 
64 115 
64 119 
64 121 
64 134 
64 139 
64 144 
64 148 
64 149 
64 150 
64 152 
64 155 
65 67 
65 71 
65 86 
65 87 
65 95 
65 109 
65 111 
65 112 
65 123 
65 124 
65 128 
65 129 
65 130 
65 135 
65 138 
65 142 
65 147 
65 151 
65 152 
65 155 
66 67 
66 68 
66 69 
66 70 
66 71 
66 72 
66 73 
66 74 
66 75 
66 76 
66 77 
66 78 
66 79 
66 80 
66 81 
66 82 
66 83 
66 84 
66 85 
66 86 
66 87 
66 98 
66 106 
66 122 
66 125 
66 130 
66 131 
66 132 
66 133 
66 134 
66 135 
67 68 
67 69 
67 70 
67 71 
67 72 
67 73 
67 74 
67 75 
67 76 
67 77 
67 86 
67 88 
67 89 
67 90 
67 91 
67 92 
67 93 
67 94 
67 95 
67 109 
67 112 
67 124 
67 128 
67 130 
67 142 
67 151 
67 155 
68 69 
68 70 
68 71 
68 72 
68 73 
68 74 
68 75 
68 76 
68 78 
68 84 
68 88 
68 90 
68 96 
68 97 
68 98 
68 99 
68 100 
68 101 
68 102 
68 109 
68 115 
68 129 
68 131 
68 137 
68 141 
68 153 
68 154 
69 70 
69 71 
69 72 
69 73 
69 74 
69 75 
69 76 
69 77 
69 79 
69 88 
69 98 
69 103 
69 104 
69 105 
69 106 
69 107 
69 108 
69 109 
69 111 
69 119 
69 127 
69 136 
69 140 
69 141 
69 142 
69 143 
70 71 
70 72 
70 73 
70 74 
70 75 
70 76 
70 79 
70 86 
70 89 
70 92 
70 96 
70 106 
70 110 
70 111 
70 112 
70 113 
70 114 
70 115 
70 116 
70 119 
70 139 
70 144 
70 148 
70 150 
70 152 
71 72 
71 73 
71 74 
71 75 
71 76 
71 80 
71 87 
71 90 
71 95 
71 96 
71 103 
71 111 
71 117 
71 118 
71 119 
71 120 
71 121 
71 123 
71 129 
71 135 
71 138 
71 147 
71 152 
72 73 
72 74 
72 75 
72 76 
72 81 
72 83 
72 91 
72 97 
72 101 
72 104 
72 110 
72 117 
72 120 
72 122 
72 123 
72 124 
72 128 
72 131 
72 140 
72 144 
72 146 
72 147 
73 74 
73 75 
73 76 
73 78 
73 82 
73 92 
73 94 
73 104 
73 105 
73 110 
73 113 
73 118 
73 120 
73 125 
73 126 
73 127 
73 128 
73 129 
73 134 
73 139 
73 142 
73 154 
74 75 
74 76 
74 80 
74 81 
74 89 
74 95 
74 99 
74 102 
74 108 
74 115 
74 121 
74 122 
74 126 
74 134 
74 136 
74 137 
74 138 
74 139 
74 149 
74 155 
75 76 
75 82 
75 84 
75 93 
75 97 
75 100 
75 103 
75 107 
75 112 
75 123 
75 127 
75 130 
75 132 
75 136 
75 137 
75 144 
75 145 
75 146 
75 148 
75 149 
76 87 
76 91 
76 93 
76 100 
76 101 
76 105 
76 107 
76 114 
76 116 
76 121 
76 124 
76 125 
76 133 
76 143 
76 147 
76 149 
76 150 
76 153 
76 154 
77 78 
77 79 
77 80 
77 81 
77 82 
77 83 
77 84 
77 85 
77 86 
77 87 
77 88 
77 89 
77 90 
77 91 
77 92 
77 93 
77 94 
77 95 
77 98 
77 111 
77 119 
77 127 
77 136 
77 140 
77 141 
77 142 
77 143 
78 79 
78 80 
78 81 
78 82 
78 83 
78 84 
78 85 
78 86 
78 87 
78 88 
78 92 
78 96 
78 97 
78 98 
78 99 
78 100 
78 101 
78 102 
78 105 
78 110 
78 118 
78 125 
78 126 
78 127 
78 128 
78 129 
79 80 
79 81 
79 82 
79 83 
79 84 
79 85 
79 86 
79 87 
79 88 
79 89 
79 96 
79 103 
79 104 
79 105 
79 106 
79 107 
79 108 
79 109 
79 110 
79 111 
79 112 
79 113 
79 114 
79 115 
79 116 
80 81 
80 82 
80 83 
80 84 
80 85 
80 86 
80 87 
80 89 
80 90 
80 96 
80 99 
80 103 
80 117 
80 118 
80 119 
80 120 
80 121 
80 122 
80 126 
80 136 
80 137 
80 138 
80 139 
81 82 
81 83 
81 84 
81 85 
81 86 
81 87 
81 91 
81 95 
81 97 
81 102 
81 104 
81 108 
81 110 
81 115 
81 117 
81 121 
81 122 
81 123 
81 124 
81 134 
81 149 
81 155 
82 83 
82 84 
82 85 
82 86 
82 87 
82 93 
82 94 
82 100 
82 103 
82 104 
82 113 
82 120 
82 123 
82 127 
82 130 
82 134 
82 137 
82 139 
82 142 
82 144 
82 145 
82 154 
83 84 
83 85 
83 86 
83 87 
83 94 
83 101 
83 102 
83 114 
83 120 
83 126 
83 128 
83 131 
83 132 
83 140 
83 143 
83 144 
83 145 
83 146 
83 147 
83 151 
83 152 
84 85 
84 86 
84 87 
84 90 
84 97 
84 107 
84 109 
84 112 
84 115 
84 129 
84 131 
84 132 
84 136 
84 137 
84 141 
84 146 
84 148 
84 149 
84 153 
84 154 
85 86 
85 87 
85 99 
85 108 
85 113 
85 116 
85 117 
85 118 
85 133 
85 135 
85 138 
85 140 
85 141 
85 145 
85 146 
85 148 
85 150 
85 151 
85 153 
85 155 
86 87 
86 92 
86 106 
86 109 
86 112 
86 119 
86 124 
86 128 
86 130 
86 139 
86 142 
86 144 
86 148 
86 150 
86 151 
86 152 
86 155 
87 93 
87 95 
87 101 
87 107 
87 111 
87 114 
87 121 
87 123 
87 124 
87 125 
87 129 
87 135 
87 138 
87 147 
87 150 
87 152 
87 153 
88 89 
88 90 
88 91 
88 92 
88 93 
88 94 
88 95 
88 96 
88 97 
88 98 
88 99 
88 100 
88 101 
88 102 
88 103 
88 104 
88 105 
88 106 
88 107 
88 108 
88 109 
89 90 
89 91 
89 92 
89 93 
89 94 
89 95 
89 96 
89 99 
89 110 
89 111 
89 112 
89 113 
89 114 
89 115 
89 116 
89 122 
89 126 
89 136 
89 137 
89 138 
89 139 
90 91 
90 92 
90 93 
90 94 
90 95 
90 96 
90 103 
90 109 
90 115 
90 117 
90 118 
90 119 
90 120 
90 121 
90 129 
90 131 
90 137 
90 141 
90 153 
90 154 
91 92 
91 93 
91 94 
91 95 
91 97 
91 100 
91 104 
91 105 
91 110 
91 116 
91 117 
91 122 
91 123 
91 124 
91 133 
91 143 
91 147 
91 149 
91 154 
92 93 
92 94 
92 95 
92 105 
92 106 
92 110 
92 118 
92 119 
92 125 
92 126 
92 127 
92 128 
92 129 
92 139 
92 144 
92 148 
92 150 
92 152 
93 94 
93 95 
93 100 
93 101 
93 103 
93 107 
93 114 
93 121 
93 123 
93 124 
93 125 
93 127 
93 130 
93 137 
93 144 
93 145 
93 150 
93 153 
94 95 
94 102 
94 104 
94 113 
94 114 
94 120 
94 126 
94 132 
94 134 
94 139 
94 142 
94 143 
94 145 
94 151 
94 152 
94 154 
95 102 
95 108 
95 111 
95 115 
95 121 
95 123 
95 129 
95 134 
95 135 
95 138 
95 147 
95 149 
95 152 
95 155 
96 97 
96 98 
96 99 
96 100 
96 101 
96 102 
96 103 
96 110 
96 111 
96 112 
96 113 
96 114 
96 115 
96 116 
96 117 
96 118 
96 119 
96 120 
96 121 
97 98 
97 99 
97 100 
97 101 
97 102 
97 104 
97 107 
97 110 
97 112 
97 117 
97 122 
97 123 
97 124 
97 132 
97 136 
97 146 
97 148 
97 149 
98 99 
98 100 
98 101 
98 102 
98 106 
98 111 
98 119 
98 122 
98 125 
98 127 
98 130 
98 131 
98 132 
98 133 
98 134 
98 135 
98 136 
98 140 
98 141 
98 142 
98 143 
99 100 
99 101 
99 102 
99 116 
99 117 
99 122 
99 126 
99 135 
99 136 
99 137 
99 138 
99 139 
99 140 
99 145 
99 148 
99 153 
99 155 
100 101 
100 102 
100 103 
100 105 
100 116 
100 123 
100 127 
100 130 
100 133 
100 137 
100 143 
100 144 
100 145 
100 147 
100 149 
100 154 
101 102 
101 107 
101 114 
101 120 
101 121 
101 124 
101 125 
101 128 
101 131 
101 140 
101 144 
101 146 
101 147 
101 150 
101 153 
102 108 
102 114 
102 115 
102 121 
102 126 
102 132 
102 134 
102 143 
102 145 
102 149 
102 151 
102 152 
102 155 
103 104 
103 105 
103 106 
103 107 
103 108 
103 109 
103 117 
103 118 
103 119 
103 120 
103 121 
103 123 
103 127 
103 130 
103 137 
103 144 
103 145 
104 105 
104 106 
104 107 
104 108 
104 109 
104 110 
104 113 
104 117 
104 120 
104 122 
104 123 
104 124 
104 134 
104 139 
104 142 
104 154 
105 106 
105 107 
105 108 
105 109 
105 110 
105 116 
105 118 
105 125 
105 126 
105 127 
105 128 
105 129 
105 133 
105 143 
105 147 
105 149 
105 154 
106 107 
106 108 
106 109 
106 119 
106 122 
106 125 
106 130 
106 131 
106 132 
106 133 
106 134 
106 135 
106 139 
106 144 
106 148 
106 150 
106 152 
107 108 
107 109 
107 112 
107 114 
107 121 
107 124 
107 125 
107 132 
107 136 
107 146 
107 148 
107 149 
107 150 
107 153 
108 109 
108 113 
108 115 
108 118 
108 121 
108 133 
108 134 
108 138 
108 141 
108 146 
108 149 
108 150 
108 151 
108 155 
109 112 
109 115 
109 124 
109 128 
109 129 
109 130 
109 131 
109 137 
109 141 
109 142 
109 151 
109 153 
109 154 
109 155 
110 111 
110 112 
110 113 
110 114 
110 115 
110 116 
110 117 
110 118 
110 122 
110 123 
110 124 
110 125 
110 126 
110 127 
110 128 
110 129 
111 112 
111 113 
111 114 
111 115 
111 116 
111 119 
111 123 
111 127 
111 129 
111 135 
111 136 
111 138 
111 140 
111 141 
111 142 
111 143 
111 147 
111 152 
112 113 
112 114 
112 115 
112 116 
112 124 
112 128 
112 130 
112 132 
112 136 
112 142 
112 146 
112 148 
112 149 
112 151 
112 155 
113 114 
113 115 
113 116 
113 118 
113 120 
113 133 
113 134 
113 138 
113 139 
113 141 
113 142 
113 146 
113 150 
113 151 
113 154 
114 115 
114 116 
114 121 
114 124 
114 125 
114 126 
114 132 
114 143 
114 145 
114 150 
114 151 
114 152 
114 153 
115 116 
115 121 
115 129 
115 131 
115 134 
115 137 
115 141 
115 149 
115 153 
115 154 
115 155 
116 117 
116 133 
116 135 
116 140 
116 143 
116 145 
116 147 
116 148 
116 149 
116 153 
116 154 
116 155 
117 118 
117 119 
117 120 
117 121 
117 122 
117 123 
117 124 
117 135 
117 140 
117 145 
117 148 
117 153 
117 155 
118 119 
118 120 
118 121 
118 125 
118 126 
118 127 
118 128 
118 129 
118 133 
118 138 
118 141 
118 146 
118 150 
118 151 
119 120 
119 121 
119 127 
119 136 
119 139 
119 140 
119 141 
119 142 
119 143 
119 144 
119 148 
119 150 
119 152 
120 121 
120 128 
120 131 
120 134 
120 139 
120 140 
120 142 
120 144 
120 146 
120 147 
120 154 
121 124 
121 125 
121 134 
121 149 
121 150 
121 153 
121 155 
122 123 
122 124 
122 125 
122 126 
122 130 
122 131 
122 132 
122 133 
122 134 
122 135 
122 136 
122 137 
122 138 
122 139 
123 124 
123 127 
123 129 
123 130 
123 135 
123 137 
123 138 
123 144 
123 145 
123 147 
123 152 
124 125 
124 128 
124 130 
124 142 
124 150 
124 151 
124 153 
124 155 
125 126 
125 127 
125 128 
125 129 
125 130 
125 131 
125 132 
125 133 
125 134 
125 135 
125 150 
125 153 
126 127 
126 128 
126 129 
126 132 
126 136 
126 137 
126 138 
126 139 
126 143 
126 145 
126 151 
126 152 
127 128 
127 129 
127 130 
127 136 
127 137 
127 140 
127 141 
127 142 
127 143 
127 144 
127 145 
128 129 
128 130 
128 131 
128 140 
128 142 
128 144 
128 146 
128 147 
128 151 
128 155 
129 131 
129 135 
129 137 
129 138 
129 141 
129 147 
129 152 
129 153 
129 154 
130 131 
130 132 
130 133 
130 134 
130 135 
130 137 
130 142 
130 144 
130 145 
130 151 
130 155 
131 132 
131 133 
131 134 
131 135 
131 137 
131 140 
131 141 
131 144 
131 146 
131 147 
131 153 
131 154 
132 133 
132 134 
132 135 
132 136 
132 143 
132 145 
132 146 
132 148 
132 149 
132 151 
132 152 
133 134 
133 135 
133 138 
133 141 
133 143 
133 146 
133 147 
133 149 
133 150 
133 151 
133 154 
134 135 
134 139 
134 142 
134 149 
134 154 
134 155 
135 138 
135 140 
135 145 
135 147 
135 148 
135 152 
135 153 
135 155 
136 137 
136 138 
136 139 
136 140 
136 141 
136 142 
136 143 
136 146 
136 148 
136 149 
137 138 
137 139 
137 141 
137 144 
137 145 
137 153 
137 154 
138 139 
138 141 
138 146 
138 147 
138 150 
138 151 
138 152 
139 142 
139 144 
139 148 
139 150 
139 152 
139 154 
140 141 
140 142 
140 143 
140 144 
140 145 
140 146 
140 147 
140 148 
140 153 
140 155 
141 142 
141 143 
141 146 
141 150 
141 151 
141 153 
141 154 
142 143 
142 151 
142 154 
142 155 
143 145 
143 147 
143 149 
143 151 
143 152 
143 154 
144 145 
144 146 
144 147 
144 148 
144 150 
144 152 
145 148 
145 151 
145 152 
145 153 
145 155 
146 147 
146 148 
146 149 
146 150 
146 151 
147 149 
147 152 
147 154 
148 149 
148 150 
148 152 
148 153 
148 155 
149 154 
149 155 
150 151 
150 152 
150 153 
151 152 
151 155 
153 154 
153 155 
